\* AsignacionCursos *\
Maximize
OBJ: __dummy
Subject To
EstAsig_1: __dummy = 0
EstAsig_2: __dummy = 0
EstAsig_3: __dummy = 0
EstAsig_4: __dummy = 0
EstAsig_5: __dummy = 0
maxCur_1: __dummy <= 2
maxCur_2: __dummy <= 2
maxCur_3: __dummy <= 2
maxCur_4: __dummy <= 2
maxCur_5: __dummy <= 2
Bounds
__dummy = 0
End
